p cnf 30 21
c p distribution  0.03 0.97
c p distribution  0.001 0.999
c p distribution  0.05 0.95
c p distribution  0.02 0.98
c p distribution  0.65 0.35
c p distribution  0.3 0.7
c p distribution  0.9 0.1
c p distribution  0.3 0.7
c p distribution  0.9 0.1
c p distribution  0.2 0.8
21 -25 -27 -1 0
22 -25 -27 -2 0
21 -25 -28 -3 0
22 -25 -28 -4 0
21 -26 -27 -5 0
22 -26 -27 -6 0
21 -26 -28 -7 0
22 -26 -28 -8 0
23 -21 -9 0
24 -21 -10 0
23 -22 -11 0
24 -22 -12 0
25 -13 0
26 -14 0
27 -15 0
28 -16 0
29 -21 -17 0
30 -21 -18 0
29 -22 -19 0
30 -22 -20 0
-30 0

